\ENCODING=ISO-8859-1
\Problem name: c:\git\ODT\MIPmodel\cSharp\ODTMIPmodel\bin\Debug\net6.0\hayes-roth.lp

Minimize
 Obj: x0 + x1 + x2 + x3 + x4 + x5 + x6 + x7 + x8 + x9 + x10
Subject To
 c0: >= 1
Bounds
 0 <= x0 <= 1
 0 <= x1 <= 1
 0 <= x2 <= 1
 0 <= x3 <= 1
 0 <= x4 <= 1
 0 <= x5 <= 1
 0 <= x6 <= 1
 0 <= x7 <= 1
 0 <= x8 <= 1
 0 <= x9 <= 1
 0 <= x10 <= 1
End
